1 -1 -2 0
1 1 -3 0
1 -1 4 0
1 1 5 0
1 -2 3 0
1 2 1 0
1 -2 -6 0
1 7 -8 0
1 7 9 0
1 7 10 0
1 7 3 0
1 7 4 0
1 7 -11 0
1 -7 12 0
1 7 -5 0
1 7 -6 0
1 10 -8 0
1 -10 9 0
1 -10 -3 0
1 -10 -4 0
1 10 -5 0
1 4 -13 0
1 -4 14 0
1 4 -15 0
1 4 -10 0
1 4 -2 0
1 4 16 0
1 4 -17 0
1 4 -18 0
1 4 -19 0
1 6 20 0
1 6 13 0
1 6 14 0
1 6 15 0
1 -6 10 0
1 -6 -2 0
1 -6 4 0
1 -6 17 0
1 -6 18 0
1 -6 19 0
1 6 -1 0
1 3 13 0
1 3 -21 0
1 3 -10 0
1 -3 -2 0
1 -3 22 0
1 -3 -17 0
1 -3 -23 0
1 -3 24 0
1 -3 -7 0
1 -3 -1 0
1 -3 5 0
1 5 -25 0
1 -5 -10 0
1 -5 17 0
1 5 -23 0
1 -5 24 0
1 -5 7 0
1 -5 -1 0
1 5 26 0
1 -19 8 0
1 -19 -9 0
1 -19 -4 0
1 -19 -11 0
1 -19 24 0
1 -19 6 0
1 15 -9 0
1 15 25 0
1 -15 12 0
1 -15 -19 0
1 -18 -8 0
1 18 14 0
1 18 27 0
1 -18 4 0
1 18 -11 0
1 18 -28 0
1 -18 -23 0
1 18 -29 0
1 -18 -6 0
1 14 8 0
1 -14 9 0
1 -14 27 0
1 14 21 0
1 -14 30 0
1 14 4 0
1 -14 -11 0
1 -14 12 0
1 -14 28 0
1 14 29 0
1 -14 6 0
1 -12 31 0
1 12 -32 0
1 -12 9 0
1 12 15 0
1 12 10 0
1 12 33 0
1 -12 -34 0
1 12 18 0
1 -12 19 0
1 -12 -35 0
1 9 31 0
1 9 -32 0
1 -9 15 0
1 -9 -10 0
1 9 36 0
1 -9 33 0
1 9 12 0
1 9 19 0
1 -9 7 0
1 11 -37 0
1 11 13 0
1 11 14 0
1 11 15 0
1 11 10 0
1 -11 -36 0
1 -11 17 0
1 11 -18 0
1 -8 -37 0
1 8 13 0
1 -8 14 0
1 -8 -15 0
1 8 -10 0
1 -8 -36 0
1 8 -11 0
1 -8 38 0
1 -8 17 0
1 8 18 0
1 8 -19 0
1 8 -7 0
1 34 27 0
1 34 -30 0
1 -34 -12 0
1 34 -17 0
1 34 28 0
1 34 -29 0
1 32 9 0
1 32 13 0
1 -32 -30 0
1 32 -12 0
1 32 28 0
1 -32 -29 0
1 33 31 0
1 -33 -9 0
1 -33 27 0
1 -33 -30 0
1 -33 38 0
1 -33 12 0
1 -33 28 0
1 33 -29 0
1 31 -37 0
1 -31 -9 0
1 31 27 0
1 -31 -30 0
1 -31 33 0
1 -31 -12 0
1 -31 -28 0
1 -31 -29 0
1 -29 31 0
1 -29 -32 0
1 29 -30 0
1 29 -33 0
1 -29 -34 0
1 29 -18 0
1 -30 32 0
1 -30 -14 0
1 30 33 0
1 30 34 0
1 -30 -18 0
1 -30 29 0
1 -28 -31 0
1 -28 32 0
1 -28 14 0
1 -28 -27 0
1 28 -39 0
1 28 36 0
1 -28 -33 0
1 28 34 0
1 28 18 0
1 28 35 0
1 27 32 0
1 -27 39 0
1 -27 -36 0
1 -27 -33 0
1 -27 34 0
1 -27 -28 0
1 27 -40 0
1 27 -35 0
1 -24 41 0
1 24 42 0
1 24 -3 0
1 -24 -43 0
1 24 44 0
1 -25 -41 0
1 25 -15 0
1 25 -42 0
1 -25 3 0
1 25 -43 0
1 23 -41 0
1 23 -42 0
1 23 45 0
1 23 -46 0
1 -23 3 0
1 23 18 0
1 -23 -44 0
1 -23 47 0
1 23 48 0
1 -23 -5 0
1 -21 -44 0
1 21 41 0
1 -21 -42 0
1 21 45 0
1 21 -46 0
1 -21 3 0
1 21 -43 0
1 -21 23 0
1 -21 -47 0
1 21 48 0
1 -42 -44 0
1 42 37 0
1 42 -13 0
1 42 21 0
1 42 25 0
1 -42 -38 0
1 42 -23 0
1 42 24 0
1 -44 13 0
1 -44 -21 0
1 -44 25 0
1 44 -42 0
1 -44 38 0
1 44 17 0
1 -44 23 0
1 44 -24 0
1 41 25 0
1 -41 43 0
1 -41 -24 0
1 43 21 0
1 -43 -25 0
1 -43 -23 0
1 43 -24 0
1 17 8 0
1 17 -13 0
1 17 42 0
1 17 45 0
1 17 3 0
1 17 -11 0
1 -17 -34 0
1 -17 -44 0
1 -17 48 0
1 -17 -5 0
1 -17 -6 0
1 -13 -8 0
1 -13 32 0
1 13 42 0
1 -13 46 0
1 13 3 0
1 -13 -4 0
1 13 -11 0
1 -13 17 0
1 13 48 0
1 13 5 0
1 13 -6 0
1 -38 20 0
1 -38 -8 0
1 -38 -37 0
1 38 42 0
1 -38 46 0
1 38 22 0
1 38 16 0
1 38 11 0
1 38 -33 0
1 -38 -44 0
1 -38 -48 0
1 -38 26 0
1 -37 20 0
1 37 -31 0
1 37 -42 0
1 -37 45 0
1 37 46 0
1 37 -22 0
1 -37 -16 0
1 -37 38 0
1 37 44 0
1 37 47 0
1 -37 48 0
1 -37 26 0
1 -46 37 0
1 46 13 0
1 46 -21 0
1 -46 39 0
1 -46 -36 0
1 46 38 0
1 -46 -23 0
1 46 48 0
1 -46 40 0
1 46 35 0
1 48 -37 0
1 -48 -46 0
1 -48 -39 0
1 48 38 0
1 48 17 0
1 -48 40 0
1 48 -35 0
1 45 37 0
1 -45 -13 0
1 -45 -21 0
1 45 38 0
1 -45 47 0
1 -47 37 0
1 -47 13 0
1 47 21 0
1 -47 45 0
1 -47 38 0
1 -47 17 0
1 -47 23 0
1 36 20 0
1 -36 8 0
1 36 9 0
1 -36 -27 0
1 -36 -46 0
1 -36 22 0
1 -36 11 0
1 -36 16 0
1 -36 12 0
1 36 -48 0
1 36 26 0
1 -35 -8 0
1 35 -20 0
1 35 -9 0
1 -35 27 0
1 -35 -46 0
1 35 22 0
1 35 -16 0
1 -35 11 0
1 -35 -12 0
1 -35 48 0
1 35 -26 0
1 -39 20 0
1 -39 27 0
1 39 46 0
1 -39 22 0
1 39 -16 0
1 -39 48 0
1 -39 -26 0
1 -40 -20 0
1 40 27 0
1 40 46 0
1 40 -39 0
1 -40 22 0
1 -40 16 0
1 -40 -28 0
1 40 26 0
1 16 20 0
1 16 39 0
1 16 -36 0
1 16 -38 0
1 16 -40 0
1 16 35 0
1 -20 39 0
1 20 -36 0
1 20 16 0
1 20 38 0
1 20 40 0
1 -20 35 0
1 22 -37 0
1 22 -39 0
1 -22 3 0
1 22 -36 0
1 -22 -38 0
1 -22 26 0
1 22 -35 0
1 -26 -39 0
1 26 -22 0
1 26 36 0
1 -26 38 0
1 26 -5 0
1 26 40 0
